(declare-datatypes () ((Nat (zero) (succ (p Nat)))))
(define-fun-rec
  leq
    ((x Nat) (y Nat)) Bool
    (match x
      (case zero true)
      (case (succ z)
        (match y
          (case zero false)
          (case (succ x2) (leq z x2))))))
(prove (forall ((x Nat)) (= (ite (leq x x) x x) x)))
